p cnf 524 760
-34 86 57 143 0
-34 86 57 -143 0
-63 79 46 144 0
-63 79 46 -144 0
65 138 83 145 0
65 138 83 -145 0
5 -141 -16 146 0
5 -141 -16 -146 0
110 -123 -38 147 0
110 -123 -38 -147 0
115 51 47 148 0
115 51 47 -148 0
61 -45 -17 149 0
61 -45 -17 -149 0
-102 44 -33 150 0
-102 44 -33 -150 0
96 98 -14 151 0
96 98 -14 -151 0
69 -142 -112 152 0
69 -142 -112 -152 0
-71 -118 -97 153 0
-71 -118 -97 -153 0
-101 47 85 154 0
-101 47 85 -154 0
37 -134 -51 155 0
37 -134 -51 -155 0
-77 41 -25 156 0
-77 41 -25 -156 0
106 25 126 157 0
106 25 126 -157 0
2 4 27 158 0
2 4 27 -158 0
117 -13 50 159 0
117 -13 50 -159 0
-116 98 -114 160 0
-116 98 -114 -160 0
-36 -115 124 161 0
-36 -115 124 -161 0
28 -29 109 162 0
28 -29 109 -162 0
9 -134 71 163 0
9 -134 71 -163 0
-90 -20 53 164 0
-90 -20 53 -164 0
137 79 -121 165 0
137 79 -121 -165 0
131 -23 133 166 0
131 -23 133 -166 0
74 36 -64 167 0
74 36 -64 -167 0
142 -1 -60 168 0
142 -1 -60 -168 0
-109 -15 130 169 0
-109 -15 130 -169 0
18 -95 55 170 0
18 -95 55 -170 0
63 79 -46 171 0
63 79 -46 -171 0
114 -35 -19 172 0
114 -35 -19 -172 0
-46 -56 -140 173 0
-46 -56 -140 -173 0
-94 7 -105 174 0
-94 7 -105 -174 0
-140 56 46 175 0
-140 56 46 -175 0
-46 -79 -63 176 0
-46 -79 -63 -176 0
-66 -30 -113 177 0
-66 -30 -113 -177 0
-14 -77 62 178 0
-14 -77 62 -178 0
-39 -93 -68 179 0
-39 -93 -68 -179 0
-24 -128 33 180 0
-24 -128 33 -180 0
132 -85 -108 181 0
132 -85 -108 -181 0
-10 63 120 182 0
-10 63 120 -182 0
48 57 -135 183 0
48 57 -135 -183 0
58 132 -15 184 0
58 132 -15 -184 0
30 -24 40 185 0
30 -24 40 -185 0
20 -105 -104 186 0
20 -105 -104 -186 0
118 -52 122 187 0
118 -52 122 -187 0
-49 88 -97 188 0
-49 88 -97 -188 0
-120 -10 -63 189 0
-120 -10 -63 -189 0
-60 1 -142 190 0
-60 1 -142 -190 0
-111 110 -54 191 0
-111 110 -54 -191 0
-72 107 -94 192 0
-72 107 -94 -192 0
-17 -140 -129 193 0
-17 -140 -129 -193 0
99 -117 28 194 0
99 -117 28 -194 0
39 -93 68 195 0
39 -93 68 -195 0
96 -48 32 196 0
96 -48 32 -196 0
-56 39 84 197 0
-56 39 84 -197 0
-41 -25 77 198 0
-41 -25 77 -198 0
-54 70 -103 199 0
-54 70 -103 -199 0
-120 61 -22 200 0
-120 61 -22 -200 0
-3 89 -45 201 0
-3 89 -45 -201 0
-106 126 -25 202 0
-106 126 -25 -202 0
-58 59 87 203 0
-58 59 87 -203 0
78 -2 -73 204 0
78 -2 -73 -204 0
37 134 51 205 0
37 134 51 -205 0
69 112 142 206 0
69 112 142 -206 0
66 30 -113 207 0
66 30 -113 -207 0
99 91 -10 208 0
99 91 -10 -208 0
-51 -37 134 209 0
-51 -37 134 -209 0
94 -72 -107 210 0
94 -72 -107 -210 0
-44 124 -84 211 0
-44 124 -84 -211 0
-4 -73 -119 212 0
-4 -73 -119 -212 0
92 -40 -70 213 0
92 -40 -70 -213 0
89 100 43 214 0
89 100 43 -214 0
21 131 80 215 0
21 131 80 -215 0
3 89 45 216 0
3 89 45 -216 0
142 1 60 217 0
142 1 60 -217 0
-7 94 -105 218 0
-7 94 -105 -218 0
-52 67 -113 219 0
-52 67 -113 -219 0
-119 4 73 220 0
-119 4 73 -220 0
54 -111 -110 221 0
54 -111 -110 -221 0
93 68 -39 222 0
93 68 -39 -222 0
33 -102 -44 223 0
33 -102 -44 -223 0
-24 -30 -40 224 0
-24 -30 -40 -224 0
122 -83 8 225 0
122 -83 8 -225 0
-50 117 13 226 0
-50 117 13 -226 0
130 -11 -86 227 0
130 -11 -86 -227 0
-79 63 46 228 0
-79 63 46 -228 0
54 111 110 229 0
54 111 110 -229 0
-31 42 127 230 0
-31 42 127 -230 0
-129 -93 101 231 0
-129 -93 101 -231 0
-99 91 10 232 0
-99 91 10 -232 0
72 102 62 233 0
72 102 62 -233 0
24 128 33 234 0
24 128 33 -234 0
-68 74 55 235 0
-68 74 55 -235 0
-130 -15 109 236 0
-130 -15 109 -236 0
-106 -126 25 237 0
-106 -126 25 -237 0
-139 -21 123 238 0
-139 -21 123 -238 0
85 -132 -108 239 0
85 -132 -108 -239 0
-104 105 -20 240 0
-104 105 -20 -240 0
121 -104 6 241 0
121 -104 6 -241 0
39 93 -68 242 0
39 93 -68 -242 0
10 63 -120 243 0
10 63 -120 -243 0
-49 -88 97 244 0
-49 -88 97 -244 0
-118 97 71 245 0
-118 97 71 -245 0
103 -82 -127 246 0
103 -82 -127 -246 0
91 125 76 247 0
91 125 76 -247 0
-58 -87 -59 248 0
-58 -87 -59 -248 0
-9 106 6 249 0
-9 106 6 -249 0
21 -123 -139 250 0
21 -123 -139 -250 0
60 78 -13 251 0
60 78 -13 -251 0
-121 -137 -79 252 0
-121 -137 -79 -252 0
90 53 20 253 0
90 53 20 -253 0
115 124 36 254 0
115 124 36 -254 0
-127 31 42 255 0
-127 31 42 -255 0
77 -62 -14 256 0
77 -62 -14 -256 0
-71 -9 -134 257 0
-71 -9 -134 -257 0
75 -7 -12 258 0
75 -7 -12 -258 0
-19 43 -128 259 0
-19 43 -128 -259 0
52 -122 118 260 0
52 -122 118 -260 0
50 108 -137 261 0
50 108 -137 -261 0
82 -65 -23 262 0
82 -65 -23 -262 0
-87 41 136 263 0
-87 41 136 -263 0
119 -4 73 264 0
119 -4 73 -264 0
105 20 104 265 0
105 20 104 -265 0
-91 -10 -99 266 0
-91 -10 -99 -266 0
113 -66 30 267 0
113 -66 30 -267 0
-66 100 -67 268 0
-66 100 -67 -268 0
-110 38 -123 269 0
-110 38 -123 -269 0
102 -62 -72 270 0
102 -62 -72 -270 0
97 88 49 271 0
97 88 49 -271 0
-104 -6 -121 272 0
-104 -6 -121 -272 0
-129 140 17 273 0
-129 140 17 -273 0
84 44 124 274 0
84 44 124 -274 0
139 88 -64 275 0
139 88 -64 -275 0
-50 108 137 276 0
-50 108 137 -276 0
101 -47 85 277 0
101 -47 85 -277 0
-137 -50 -108 278 0
-137 -50 -108 -278 0
21 123 139 279 0
21 123 139 -279 0
-103 82 -127 280 0
-103 82 -127 -280 0
-85 101 47 281 0
-85 101 47 -281 0
135 11 75 282 0
135 11 75 -282 0
-8 122 83 283 0
-8 122 83 -283 0
44 -84 -124 284 0
44 -84 -124 -284 0
32 1 -35 285 0
32 1 -35 -285 0
140 -17 129 286 0
140 -17 129 -286 0
-29 -109 -28 287 0
-29 -109 -28 -287 0
52 113 67 288 0
52 113 67 -288 0
-128 24 -33 289 0
-128 24 -33 -289 0
-114 -35 19 290 0
-114 -35 19 -290 0
-5 16 -141 291 0
-5 16 -141 -291 0
52 122 -118 292 0
52 122 -118 -292 0
128 -24 -33 293 0
128 -24 -33 -293 0
31 -26 38 294 0
31 -26 38 -294 0
-57 34 86 295 0
-57 34 86 -295 0
-5 -133 81 296 0
-5 -133 81 -296 0
-36 -64 -74 297 0
-36 -64 -74 -297 0
-125 91 -76 298 0
-125 91 -76 -298 0
59 58 -87 299 0
59 58 -87 -299 0
18 -55 95 300 0
18 -55 95 -300 0
-62 -102 72 301 0
-62 -102 72 -301 0
34 -116 -29 302 0
34 -116 -29 -302 0
-98 116 -114 303 0
-98 116 -114 -303 0
129 93 101 304 0
129 93 101 -304 0
138 -18 -81 305 0
138 -18 -81 -305 0
-53 76 -16 306 0
-53 76 -16 -306 0
-45 17 -61 307 0
-45 17 -61 -307 0
104 -121 6 308 0
104 -121 6 -308 0
-60 78 13 309 0
-60 78 13 -309 0
-38 -31 -26 310 0
-38 -31 -26 -310 0
-55 -95 -18 311 0
-55 -95 -18 -311 0
-134 -37 51 312 0
-134 -37 51 -312 0
24 -40 30 313 0
24 -40 30 -313 0
-1 35 32 314 0
-1 35 32 -314 0
-54 111 -110 315 0
-54 111 -110 -315 0
-141 -125 -42 316 0
-141 -125 -42 -316 0
-27 4 -2 317 0
-27 4 -2 -317 0
-30 66 113 318 0
-30 66 113 -318 0
-126 -80 26 319 0
-126 -80 26 -319 0
46 -56 140 320 0
46 -56 140 -320 0
-78 -73 2 321 0
-78 -73 2 -321 0
-45 -89 3 322 0
-45 -89 3 -322 0
112 107 323 324 0
112 107 323 -324 0
112 107 -323 325 0
112 107 -323 -325 0
-53 16 -76 326 0
-53 16 -76 -326 0
-57 48 135 327 0
-57 48 135 -327 0
64 74 -36 328 0
64 74 -36 -328 0
-80 131 -21 329 0
-80 131 -21 -329 0
-91 125 -76 330 0
-91 125 -76 -330 0
12 7 75 331 0
12 7 75 -331 0
-136 87 41 332 0
-136 87 41 -332 0
-90 59 136 333 0
-90 59 136 -333 0
-78 13 60 334 0
-78 13 60 -334 0
29 -109 28 335 0
29 -109 28 -335 0
-38 26 31 336 0
-38 26 31 -336 0
138 18 81 337 0
138 18 81 -337 0
-35 -32 -1 338 0
-35 -32 -1 -338 0
86 130 11 339 0
86 130 11 -339 0
-100 -89 43 340 0
-100 -89 43 -340 0
-131 -80 21 341 0
-131 -80 21 -341 0
-94 72 -107 342 0
-94 72 -107 -342 0
40 -92 -70 343 0
40 -92 -70 -343 0
-100 66 -67 344 0
-100 66 -67 -344 0
-69 -142 112 345 0
-69 -142 112 -345 0
103 -70 -54 346 0
103 -70 -54 -346 0
-126 106 -25 347 0
-126 106 -25 -347 0
-78 -2 73 348 0
-78 -2 73 -348 0
-140 129 17 349 0
-140 129 17 -349 0
99 -28 117 350 0
99 -28 117 -350 0
81 133 5 351 0
81 133 5 -351 0
-41 -87 -136 352 0
-41 -87 -136 -352 0
-138 -65 83 353 0
-138 -65 83 -353 0
73 78 2 354 0
73 78 2 -354 0
116 34 29 355 0
116 34 29 -355 0
65 23 82 356 0
65 23 82 -356 0
15 58 -132 357 0
15 58 -132 -357 0
7 -12 -75 358 0
7 -12 -75 -358 0
121 -79 137 359 0
121 -79 137 -359 0
130 109 15 360 0
130 109 15 -360 0
120 10 -63 361 0
120 10 -63 -361 0
57 -48 135 362 0
57 -48 135 -362 0
56 39 -84 363 0
56 39 -84 -363 0
-119 -12 49 364 0
-119 -12 49 -364 0
95 -69 -3 365 0
95 -69 -3 -365 0
-4 -27 2 366 0
-4 -27 2 -366 0
-15 -132 -58 367 0
-15 -132 -58 -367 0
12 -7 -75 368 0
12 -7 -75 -368 0
136 87 -41 369 0
136 87 -41 -369 0
-21 80 -131 370 0
-21 80 -131 -370 0
47 -115 -51 371 0
47 -115 -51 -371 0
-55 74 68 372 0
-55 74 68 -372 0
-69 -95 3 373 0
-69 -95 3 -373 0
-5 -81 133 374 0
-5 -81 133 -374 0
5 -133 -81 375 0
5 -133 -81 -375 0
22 120 61 376 0
22 120 61 -376 0
92 70 40 377 0
92 70 40 -377 0
-43 89 -100 378 0
-43 89 -100 -378 0
-19 128 -43 379 0
-19 128 -43 -379 0
-23 -131 -133 380 0
-23 -131 -133 -380 0
-128 -43 19 381 0
-128 -43 19 -381 0
79 -137 121 382 0
79 -137 121 -382 0
59 90 -136 383 0
59 90 -136 -383 0
-61 120 -22 384 0
-61 120 -22 -384 0
106 9 -6 385 0
106 9 -6 -385 0
125 -141 42 386 0
125 -141 42 -386 0
-11 75 -135 387 0
-11 75 -135 -387 0
-111 27 37 388 0
-111 27 37 -388 0
96 48 -32 389 0
96 48 -32 -389 0
-85 -132 108 390 0
-85 -132 108 -390 0
-96 -98 -14 391 0
-96 -98 -14 -391 0
-57 -48 -135 392 0
-57 -48 -135 -392 0
138 -83 -65 393 0
138 -83 -65 -393 0
-82 -23 65 394 0
-82 -23 65 -394 0
-97 118 71 395 0
-97 118 71 -395 0
115 -124 -36 396 0
115 -124 -36 -396 0
26 -31 38 397 0
26 -31 38 -397 0
119 -49 -12 398 0
119 -49 -12 -398 0
135 -11 -75 399 0
135 -11 -75 -399 0
137 50 -108 400 0
137 50 -108 -400 0
-27 -111 -37 401 0
-27 -111 -37 -401 0
111 -27 37 402 0
111 -27 37 -402 0
-101 -85 -47 403 0
-101 -85 -47 -403 0
-55 -74 -68 404 0
-55 -74 -68 -404 0
-62 -77 14 405 0
-62 -77 14 -405 0
6 -106 9 406 0
6 -106 9 -406 0
22 92 -8 407 0
22 92 -8 -407 0
-86 11 -130 408 0
-86 11 -130 -408 0
114 116 98 409 0
114 116 98 -409 0
-73 119 4 410 0
-73 119 4 -410 0
14 -98 96 411 0
14 -98 96 -411 0
1 -32 35 412 0
1 -32 35 -412 0
53 16 76 413 0
53 16 76 -413 0
142 -112 -69 414 0
142 -112 -69 -414 0
-78 -60 -13 415 0
-78 -60 -13 -415 0
54 70 103 416 0
54 70 103 -416 0
100 -43 -89 417 0
100 -43 -89 -417 0
55 95 -18 418 0
55 95 -18 -418 0
141 125 -42 419 0
141 125 -42 -419 0
-4 -2 27 420 0
-4 -2 27 -420 0
-98 114 -116 421 0
-98 114 -116 -421 0
-13 -50 -117 422 0
-13 -50 -117 -422 0
-125 141 42 423 0
-125 141 42 -423 0
14 98 -96 424 0
14 98 -96 -424 0
113 -67 -52 425 0
113 -67 -52 -425 0
-58 15 132 426 0
-58 15 132 -426 0
134 -9 71 427 0
134 -9 71 -427 0
29 -28 109 428 0
29 -28 109 -428 0
23 133 -131 429 0
23 133 -131 -429 0
105 94 7 430 0
105 94 7 -430 0
-5 -16 141 431 0
-5 -16 141 -431 0
123 110 38 432 0
123 110 38 -432 0
-48 -32 -96 433 0
-48 -32 -96 -433 0
139 64 -88 434 0
139 64 -88 -434 0
-126 80 -26 435 0
-126 80 -26 -435 0
-113 52 -67 436 0
-113 52 -67 -436 0
123 -110 -38 437 0
123 -110 -38 -437 0
119 12 49 438 0
119 12 49 -438 0
-86 -57 -34 439 0
-86 -57 -34 -439 0
-81 -138 18 440 0
-81 -138 18 -440 0
64 -74 36 441 0
64 -74 36 -441 0
-96 48 32 442 0
-96 48 32 -442 0
116 -29 -34 443 0
116 -29 -34 -443 0
-7 105 -94 444 0
-7 105 -94 -444 0
-99 -117 -28 445 0
-99 -117 -28 -445 0
49 -97 -88 446 0
49 -97 -88 -446 0
-19 35 -114 447 0
-19 35 -114 -447 0
-47 51 -115 448 0
-47 51 -115 -448 0
34 57 -86 449 0
34 57 -86 -449 0
127 103 82 450 0
127 103 82 -450 0
-47 115 -51 451 0
-47 115 -51 -451 0
-115 -124 36 452 0
-115 -124 36 -452 0
114 19 35 453 0
114 19 35 -453 0
86 -130 -11 454 0
86 -130 -11 -454 0
-92 70 -40 455 0
-92 70 -40 -455 0
14 77 62 456 0
14 77 62 -456 0
69 95 3 457 0
69 95 3 -457 0
-59 -136 -90 458 0
-59 -136 -90 -458 0
85 132 108 459 0
85 132 108 -459 0
-18 -138 81 460 0
-18 -138 81 -460 0
-83 -138 65 461 0
-83 -138 65 -461 0
-101 129 -93 462 0
-101 129 -93 -462 0
104 121 -6 463 0
104 121 -6 -463 0
-103 54 -70 464 0
-103 54 -70 -464 0
-84 -39 -56 465 0
-84 -39 -56 -465 0
128 19 43 466 0
128 19 43 -466 0
20 -53 -90 467 0
20 -53 -90 -467 0
-52 -118 -122 468 0
-52 -118 -122 -468 0
29 -116 -34 469 0
29 -116 -34 -469 0
-129 -101 93 470 0
-129 -101 93 -470 0
-139 -88 -64 471 0
-139 -88 -64 -471 0
-125 -91 76 472 0
-125 -91 76 -472 0
12 -49 -119 473 0
12 -49 -119 -473 0
-82 23 -65 474 0
-82 23 -65 -474 0
-82 -103 127 475 0
-82 -103 127 -475 0
-31 -127 -42 476 0
-31 -127 -42 -476 0
102 33 44 477 0
102 33 44 -477 0
-105 104 -20 478 0
-105 104 -20 -478 0
118 -71 97 479 0
118 -71 97 -479 0
87 -59 58 480 0
87 -59 58 -480 0
66 67 100 481 0
66 67 100 -481 0
90 -53 -20 482 0
90 -53 -20 -482 0
-80 -26 126 483 0
-80 -26 126 -483 0
31 -42 127 484 0
31 -42 127 -484 0
136 90 -59 485 0
136 90 -59 -485 0
139 -123 -21 486 0
139 -123 -21 -486 0
72 107 94 487 0
72 107 94 -487 0
55 68 -74 488 0
55 68 -74 -488 0
-133 23 131 489 0
-133 23 131 -489 0
15 -130 -109 490 0
15 -130 -109 -490 0
117 28 -99 491 0
117 28 -99 -491 0
-139 64 88 492 0
-139 64 88 -492 0
141 5 16 493 0
141 5 16 -493 0
84 -44 -124 494 0
84 -44 -124 -494 0
-22 92 8 495 0
-22 92 8 -495 0
-95 69 -3 496 0
-95 69 -3 -496 0
-77 -41 25 497 0
-77 -41 25 -497 0
80 126 26 498 0
80 126 26 -498 0
111 -37 27 499 0
111 -37 27 -499 0
60 -142 -1 500 0
60 -142 -1 -500 0
-122 -8 -83 501 0
-122 -8 -83 -501 0
9 134 -71 502 0
9 134 -71 -502 0
13 -117 50 503 0
13 -117 50 -503 0
-16 -76 53 504 0
-16 -76 53 -504 0
45 -61 -17 505 0
45 -61 -17 -505 0
8 83 -122 506 0
8 83 -122 -506 0
8 22 -92 507 0
8 22 -92 -507 0
-72 62 -102 508 0
-72 62 -102 -508 0
67 -66 -100 509 0
67 -66 -100 -509 0
-61 -120 22 510 0
-61 -120 22 -510 0
40 -30 24 511 0
40 -30 24 -511 0
140 56 -46 512 0
140 56 -46 -512 0
25 77 41 513 0
25 77 41 -513 0
84 56 -39 514 0
84 56 -39 -514 0
-92 -22 -8 515 0
-92 -22 -8 -515 0
-107 -112 516 517 0
-107 -112 516 -517 0
-107 -112 -516 518 0
-107 -112 -516 -518 0
-33 102 -44 519 0
-33 102 -44 -519 0
11 -135 -75 520 0
11 -135 -75 -520 0
-89 -3 45 521 0
-89 -3 45 -521 0
17 61 45 522 0
17 61 45 -522 0
10 99 -91 523 0
10 99 -91 -523 0
-9 -6 -106 524 0
-9 -6 -106 -524 0

